
Gurobi 9.0.1 (linux64) logging started Thu Apr 30 23:41:57 2020

Gurobi Optimizer version 9.0.1 build v9.0.1rc0 (linux64)
Optimize a model with 1264 rows, 842 columns and 4500 nonzeros
Model fingerprint: 0x511ab041
Variable types: 0 continuous, 842 integer (810 binary)
Coefficient statistics:
  Matrix range     [1e+00, 8e+00]
  Objective range  [2e+00, 1e+02]
  Bounds range     [1e+00, 1e+00]
  RHS range        [1e+00, 9e+00]

User MIP start produced solution with objective 590 (0.00s)
Loaded user MIP start with objective 590

Presolve removed 650 rows and 396 columns
Presolve time: 0.02s
Presolved: 614 rows, 446 columns, 2592 nonzeros
Variable types: 0 continuous, 446 integer (418 binary)

Root relaxation: objective 3.742500e+02, 419 iterations, 0.02 seconds

    Nodes    |    Current Node    |     Objective Bounds      |     Work
 Expl Unexpl |  Obj  Depth IntInf | Incumbent    BestBd   Gap | It/Node Time

     0     0  374.25000    0   23  590.00000  374.25000  36.6%     -    0s
     0     0  448.00000    0   23  590.00000  448.00000  24.1%     -    0s
     0     0  448.00000    0   23  590.00000  448.00000  24.1%     -    0s
     0     0  448.37500    0   48  590.00000  448.37500  24.0%     -    0s
     0     0  448.75000    0   43  590.00000  448.75000  23.9%     -    0s
     0     0  448.75000    0   47  590.00000  448.75000  23.9%     -    0s
     0     0  454.20000    0   58  590.00000  454.20000  23.0%     -    0s
     0     0  454.20000    0   45  590.00000  454.20000  23.0%     -    0s
     0     0  456.50000    0   50  590.00000  456.50000  22.6%     -    0s
     0     0  461.00000    0   65  590.00000  461.00000  21.9%     -    0s
     0     0  461.00000    0   64  590.00000  461.00000  21.9%     -    0s
     0     0  461.00000    0   66  590.00000  461.00000  21.9%     -    0s
     0     0  461.00000    0   58  590.00000  461.00000  21.9%     -    0s
     0     0  461.00000    0   80  590.00000  461.00000  21.9%     -    0s
     0     0  461.00000    0   79  590.00000  461.00000  21.9%     -    0s
     0     0  461.00000    0   72  590.00000  461.00000  21.9%     -    0s
     0     0  461.00000    0   72  590.00000  461.00000  21.9%     -    0s
     0     2  461.00000    0   45  590.00000  461.00000  21.9%     -    0s
   752   473  538.16216   41   54  590.00000  470.14286  20.3%  45.3    5s
  1576   756  527.28571   32   40  590.00000  473.22756  19.8%  45.7   10s
* 1791   813              52     578.0000000  480.42913  16.9%  46.3   11s
H 1806   813                     577.0000000  480.90577  16.7%  46.4   11s
* 2018   944              46     575.0000000  483.37846  15.9%  47.6   12s
H 2019   902                     571.0000000  483.37846  15.3%  47.6   12s
* 2264  1035              41     569.0000000  485.61905  14.7%  48.9   14s
* 2322   993              47     564.0000000  486.00000  13.8%  48.8   14s
H 2328   919                     558.0000000  486.00000  12.9%  48.7   14s
  2353   932  501.12926   21  153  558.00000  487.00000  12.7%  48.6   15s
H 2390   917                     555.0000000  487.00000  12.3%  48.3   15s
H 2651   623                     533.0000000  491.55873  7.78%  50.7   17s
H 2704   336                     518.0000000  492.71429  4.88%  50.3   17s
H 2765   291                     515.0000000  499.13605  3.08%  50.8   18s
  3056   369  503.17084   32  136  515.00000  501.40260  2.64%  52.5   20s
H 3475   444                     514.0000000  502.27984  2.28%  53.2   22s
  3780   499  510.95816   18  132  514.00000  502.82514  2.17%  54.6   25s
  4478   572  505.97288   26  165  514.00000  504.47217  1.85%  55.7   30s
  5249   575  512.65439   26  171  514.00000  505.94982  1.57%  55.9   35s
  6237   498  511.00773   28   53  514.00000  507.36342  1.29%  55.1   40s
  7328   221     cutoff   27       514.00000  509.81265  0.81%  53.3   45s

Cutting planes:
  Learned: 5
  Gomory: 9
  Cover: 50
  Implied bound: 122
  MIR: 12
  StrongCG: 3
  Flow cover: 59
  GUB cover: 2
  Inf proof: 6
  Zero half: 31
  RLT: 1
  Relax-and-lift: 1

Explored 7708 nodes (404233 simplex iterations) in 46.07 seconds
Thread count was 1 (of 40 available processors)

Solution count 10: 514 515 518 ... 575

Optimal solution found (tolerance 1.00e-04)
Best objective 5.140000000000e+02, best bound 5.140000000000e+02, gap 0.0000%

User-callback calls 31932, time in user-callback 0.07 sec
